
Gurobi 7.5.2 (linux64) logging started Sat Jun 23 17:11:53 2018

Changed value of parameter LogFile to result/ilp/simNo_4-n_100-m_40-s_4-minVAF_0.05-cov_2000-k_1-fn_0.05-fp_0.0001-na_0.15.ILP.gurobiSolverLog
   Prev: gurobi.log  Default: 
Changed value of parameter TimeLimit to 86400.0
   Prev: 1e+100  Min: 0.0  Max: 1e+100  Default: 1e+100
Optimize a model with 1265601 rows, 330440 columns and 3489120 nonzeros
Variable types: 0 continuous, 330440 integer (330440 binary)
Coefficient statistics:
  Matrix range     [3e-03, 3e+00]
  Objective range  [1e-01, 9e+00]
  Bounds range     [1e+00, 1e+00]
  RHS range        [3e-01, 2e+00]
Found heuristic solution: objective -20037.54565
Presolve removed 328560 rows and 213650 columns (presolve time = 6s) ...
Presolve removed 329060 rows and 213650 columns (presolve time = 10s) ...
Presolve removed 329818 rows and 213650 columns (presolve time = 15s) ...
Presolve removed 330090 rows and 213650 columns (presolve time = 20s) ...
Presolve removed 330090 rows and 213650 columns (presolve time = 27s) ...
Presolve removed 330090 rows and 213650 columns (presolve time = 30s) ...
Presolve removed 330090 rows and 213650 columns (presolve time = 35s) ...
Presolve removed 330090 rows and 213650 columns (presolve time = 40s) ...
Presolve removed 330090 rows and 213650 columns (presolve time = 47s) ...
Presolve removed 330090 rows and 213650 columns (presolve time = 50s) ...
Presolve removed 330090 rows and 213650 columns
Presolve time: 50.31s
Presolved: 935511 rows, 116790 columns, 2596353 nonzeros
Variable types: 0 continuous, 116790 integer (116790 binary)
Presolve removed 0 rows and 0 columns (presolve time = 6s) ...
Presolved: 116790 rows, 1052301 columns, 2713143 nonzeros

Presolve removed 116790 rows and 1052301 columns

Root simplex log...

Iteration    Objective       Primal Inf.    Dual Inf.      Time
       0    3.9933599e+00   0.000000e+00   1.227020e+05     64s
    6832   -7.8388865e+01   0.000000e+00   4.850950e+04     65s
   22908   -2.3283395e+02   0.000000e+00   4.991250e+03     70s
   23775   -2.3557517e+02   0.000000e+00   0.000000e+00     72s
   23775   -2.3557517e+02   0.000000e+00   0.000000e+00     74s

Root relaxation: objective -2.355752e+02, 23775 iterations, 20.41 seconds
Total elapsed time = 76.26s
Total elapsed time = 123.37s
Total elapsed time = 139.34s
Total elapsed time = 151.46s

    Nodes    |    Current Node    |     Objective Bounds      |     Work
 Expl Unexpl |  Obj  Depth IntInf | Incumbent    BestBd   Gap | It/Node Time

     0     0 -235.57517    0  577 -20037.546 -235.57517  98.8%     -  159s
H    0     0                    -267.8443451 -235.57517  12.0%     -  169s
     0     0 -239.78419    0  532 -267.84435 -239.78419  10.5%     -  192s
     0     0 -242.34871    0  643 -267.84435 -242.34871  9.52%     -  229s
     0     0 -242.36893    0  651 -267.84435 -242.36893  9.51%     -  247s
     0     0 -242.44457    0  638 -267.84435 -242.44457  9.48%     -  260s
     0     0 -242.50157    0  660 -267.84435 -242.50157  9.46%     -  270s
     0     0 -242.50157    0  663 -267.84435 -242.50157  9.46%     -  276s
     0     0 -243.19150    0  594 -267.84435 -243.19150  9.20%     -  293s
     0     0 -243.29171    0  591 -267.84435 -243.29171  9.17%     -  307s
     0     0 -243.99322    0  455 -267.84435 -243.99322  8.90%     -  322s
     0     0 -244.14194    0  583 -267.84435 -244.14194  8.85%     -  341s
     0     0 -244.17376    0  637 -267.84435 -244.17376  8.84%     -  350s
     0     0 -244.26784    0  638 -267.84435 -244.26784  8.80%     -  358s
     0     0 -244.29021    0  637 -267.84435 -244.29021  8.79%     -  368s
     0     0 -244.29376    0  637 -267.84435 -244.29376  8.79%     -  376s
     0     0 -244.31402    0  629 -267.84435 -244.31402  8.79%     -  395s
     0     0 -244.31402    0  630 -267.84435 -244.31402  8.79%     -  412s
     0     0 -244.33586    0  635 -267.84435 -244.33586  8.78%     -  428s
     0     0 -244.36033    0  643 -267.84435 -244.36033  8.77%     -  447s
     0     0 -244.36370    0  642 -267.84435 -244.36370  8.77%     -  456s
     0     0 -244.36550    0  642 -267.84435 -244.36550  8.77%     -  465s
     0     0 -245.36876    0  477 -267.84435 -245.36876  8.39%     -  486s
     0     0 -246.71709    0  468 -267.84435 -246.71709  7.89%     -  511s
     0     0 -247.27829    0  443 -267.84435 -247.27829  7.68%     -  533s
     0     0 -248.13383    0  509 -267.84435 -248.13383  7.36%     -  553s
     0     0 -248.28972    0  495 -267.84435 -248.28972  7.30%     -  572s
     0     0 -248.41443    0  499 -267.84435 -248.41443  7.25%     -  582s
     0     0 -250.92611    0  611 -267.84435 -250.92611  6.32%     -  604s
     0     0 -250.92611    0  455 -267.84435 -250.92611  6.32%     -  621s
     0     0 -250.93985    0  491 -267.84435 -250.93985  6.31%     -  637s
     0     0 -250.93985    0  433 -267.84435 -250.93985  6.31%     -  654s
     0     0 -250.93985    0  428 -267.84435 -250.93985  6.31%     -  671s
     0     0 -252.24004    0  587 -267.84435 -252.24004  5.83%     -  699s
     0     0 -252.44097    0  530 -267.84435 -252.44097  5.75%     -  719s
     0     0 -252.44097    0  589 -267.84435 -252.44097  5.75%     -  729s
     0     0 -254.16344    0  554 -267.84435 -254.16344  5.11%     -  745s
     0     0 -254.63111    0  620 -267.84435 -254.63111  4.93%     -  766s
     0     0 -254.66755    0  629 -267.84435 -254.66755  4.92%     -  785s
     0     0 -255.30413    0  638 -267.84435 -255.30413  4.68%     -  814s
     0     0 -255.34367    0  628 -267.84435 -255.34367  4.67%     -  830s
     0     0 -255.47007    0  635 -267.84435 -255.47007  4.62%     -  844s
     0     0 -255.47007    0  637 -267.84435 -255.47007  4.62%     -  854s
     0     0 -255.95219    0  609 -267.84435 -255.95219  4.44%     -  877s
     0     0 -256.62029    0  635 -267.84435 -256.62029  4.19%     -  899s
     0     0 -256.62029    0  637 -267.84435 -256.62029  4.19%     -  909s
     0     0 -256.62029    0  607 -267.84435 -256.62029  4.19%     -  929s
     0     0 -256.62029    0  603 -267.84435 -256.62029  4.19%     -  946s
     0     0 -256.62029    0  638 -267.84435 -256.62029  4.19%     -  961s
     0     0 -256.62029    0  605 -267.84435 -256.62029  4.19%     -  980s
     0     0 -257.55562    0  494 -267.84435 -257.55562  3.84%     - 1206s
     0     0 -257.55562    0  524 -267.84435 -257.55562  3.84%     - 1222s
     0     0 -257.55562    0  588 -267.84435 -257.55562  3.84%     - 1244s
     0     0 -257.55562    0  578 -267.84435 -257.55562  3.84%     - 1261s
     0     0 -257.55562    0  514 -267.84435 -257.55562  3.84%     - 1404s
     0     0 -257.55562    0  340 -267.84435 -257.55562  3.84%     - 1527s
     0     2 -257.55562    0  340 -267.84435 -257.55562  3.84%     - 1706s
     1     3 -257.55562    1  489 -267.84435 -257.55562  3.84%  1696 1712s
     2     4 -258.49096    2  520 -267.84435 -257.55562  3.84%   990 1717s
     3     5 -258.95863    3  377 -267.84435 -257.55562  3.84%   728 1723s
     4     4     cutoff    3      -267.84435 -257.55562  3.84%   776 1735s
     6     6 -260.36164    5  338 -267.84435 -257.55562  3.84%   565 1742s
     7     5     cutoff    5      -267.84435 -257.55562  3.84%   670 1754s
     8     6 -260.36164    6  308 -267.84435 -257.55562  3.84%   586 1755s
    12     8     cutoff    9      -267.84435 -257.55562  3.84%   457 1766s
    15    11 -263.16765   12  240 -267.84435 -257.55562  3.84%   374 1773s
    16    10     cutoff   12      -267.84435 -257.55562  3.84%   362 1775s
    19    11 -265.97367   14  233 -267.84435 -257.55562  3.84%   318 1780s
    23    13     cutoff   16      -267.84435 -257.55562  3.84%   270 1786s
    26    10     cutoff    1      -267.84435 -257.55562  3.84%   305 1804s
    27    11 -267.37668    2  208 -267.84435 -258.97650  3.31%   422 1835s
    30    10 -267.37668    4  213 -267.84435 -260.36164  2.79%   412 1852s
    33     7     cutoff    8      -267.84435 -260.36164  2.79%   384 1857s
    34     6     cutoff    7      -267.84435 -260.36164  2.79%   389 1864s
    35     7 -267.37668    6  163 -267.84435 -261.76465  2.27%   392 1874s
    36     7 -267.37668    7  145 -267.84435 -261.76465  2.27%   381 1876s
    41     2     cutoff   15      -267.84435 -265.97367  0.70%   342 1881s
    44     3 -266.16074   16   87 -267.84435 -265.97367  0.70%   321 1890s
    48     1     cutoff   18      -267.84435 -265.97367  0.70%   303 1895s

Cutting planes:
  Zero half: 83

Explored 50 nodes (85042 simplex iterations) in 1898.05 seconds
Thread count was 1 (of 80 available processors)

Solution count 2: -267.844 -20037.5 

Optimal solution found (tolerance 1.00e-04)
Best objective -2.678443451062e+02, best bound -2.678443451062e+02, gap 0.0000%
